data/lp_files/pEFS/84_8.lp
\ Model foo
\ LP format - for model browsing. Use MPS format to capture full model detail.
Minimize
  z
Subject To
 allocateEach[1]: x[1,1] + x[2,1] + x[3,1] + x[4,1] + x[5,1] = 1
 allocateEach[2]: x[1,2] + x[2,2] + x[3,2] + x[4,2] + x[5,2] = 1
 allocateEach[3]: x[1,3] + x[2,3] + x[3,3] + x[4,3] + x[5,3] = 1
 allocateEach[4]: x[1,4] + x[2,4] + x[3,4] + x[4,4] + x[5,4] = 1
 allocateAllCash: cashProportion[1] + cashProportion[2] + cashProportion[3]
   + cashProportion[4] + cashProportion[5] = 1
 findWorstP[1,2]: z + 0.3200128005120205 cashProportion[1]
   - 0.3200128005120205 cashProportion[2] + 0.00252010080403216 x[1,1]
   + 0.2684907396295852 x[1,2] + 0.2132085283411336 x[1,3]
   + 0.1957678307132285 x[1,4] - 0.00252010080403216 x[2,1]
   - 0.2684907396295852 x[2,2] - 0.2132085283411336 x[2,3]
   - 0.1957678307132285 x[2,4] >= 0
 findWorstP[1,3]: z + 0.3200128005120205 cashProportion[1]
   - 0.3200128005120205 cashProportion[3] + 0.00252010080403216 x[1,1]
   + 0.2684907396295852 x[1,2] + 0.2132085283411336 x[1,3]
   + 0.1957678307132285 x[1,4] - 0.00252010080403216 x[3,1]
   - 0.2684907396295852 x[3,2] - 0.2132085283411336 x[3,3]
   - 0.1957678307132285 x[3,4] >= 0
 findWorstP[1,4]: z + 0.3200128005120205 cashProportion[1]
   - 0.3200128005120205 cashProportion[4] + 0.00252010080403216 x[1,1]
   + 0.2684907396295852 x[1,2] + 0.2132085283411336 x[1,3]
   + 0.1957678307132285 x[1,4] - 0.00252010080403216 x[4,1]
   - 0.2684907396295852 x[4,2] - 0.2132085283411336 x[4,3]
   - 0.1957678307132285 x[4,4] >= 0
 findWorstP[1,5]: z + 0.3200128005120205 cashProportion[1]
   - 0.3200128005120205 cashProportion[5] + 0.00252010080403216 x[1,1]
   + 0.2684907396295852 x[1,2] + 0.2132085283411336 x[1,3]
   + 0.1957678307132285 x[1,4] - 0.00252010080403216 x[5,1]
   - 0.2684907396295852 x[5,2] - 0.2132085283411336 x[5,3]
   - 0.1957678307132285 x[5,4] >= 0
 findWorstP[2,1]: z - 0.3604415408875874 cashProportion[1]
   + 0.3604415408875874 cashProportion[2] - 0.3575580085604866 x[1,1]
   - 0.0430727641360667 x[1,2] - 0.1075016895697229 x[1,3]
   - 0.1314259968461365 x[1,4] + 0.3575580085604866 x[2,1]
   + 0.0430727641360667 x[2,2] + 0.1075016895697229 x[2,3]
   + 0.1314259968461365 x[2,4] >= 0
 findWorstP[2,3]: z + 0.3604415408875874 cashProportion[2]
   - 0.3604415408875874 cashProportion[3] + 0.3575580085604866 x[2,1]
   + 0.0430727641360667 x[2,2] + 0.1075016895697229 x[2,3]
   + 0.1314259968461365 x[2,4] - 0.3575580085604866 x[3,1]
   - 0.0430727641360667 x[3,2] - 0.1075016895697229 x[3,3]
   - 0.1314259968461365 x[3,4] >= 0
 findWorstP[2,4]: z + 0.3604415408875874 cashProportion[2]
   - 0.3604415408875874 cashProportion[4] + 0.3575580085604866 x[2,1]
   + 0.0430727641360667 x[2,2] + 0.1075016895697229 x[2,3]
   + 0.1314259968461365 x[2,4] - 0.3575580085604866 x[4,1]
   - 0.0430727641360667 x[4,2] - 0.1075016895697229 x[4,3]
   - 0.1314259968461365 x[4,4] >= 0
 findWorstP[2,5]: z + 0.3604415408875874 cashProportion[2]
   - 0.3604415408875874 cashProportion[5] + 0.3575580085604866 x[2,1]
   + 0.0430727641360667 x[2,2] + 0.1075016895697229 x[2,3]
   + 0.1314259968461365 x[2,4] - 0.3575580085604866 x[5,1]
   - 0.0430727641360667 x[5,2] - 0.1075016895697229 x[5,3]
   - 0.1314259968461365 x[5,4] >= 0
 findWorstP[3,1]: z - 0.2258164676659046 cashProportion[1]
   + 0.2258164676659046 cashProportion[3] - 0.1333728512151749 x[1,1]
   - 0.1651000649222344 x[1,2] - 0.2704434470883789 x[1,3]
   - 0.2052671691083072 x[1,4] + 0.1333728512151749 x[3,1]
   + 0.1651000649222344 x[3,2] + 0.2704434470883789 x[3,3]
   + 0.2052671691083072 x[3,4] >= 0
 findWorstP[3,2]: z - 0.2258164676659046 cashProportion[2]
   + 0.2258164676659046 cashProportion[3] - 0.1333728512151749 x[2,1]
   - 0.1651000649222344 x[2,2] - 0.2704434470883789 x[2,3]
   - 0.2052671691083072 x[2,4] + 0.1333728512151749 x[3,1]
   + 0.1651000649222344 x[3,2] + 0.2704434470883789 x[3,3]
   + 0.2052671691083072 x[3,4] >= 0
 findWorstP[3,4]: z + 0.2258164676659046 cashProportion[3]
   - 0.2258164676659046 cashProportion[4] + 0.1333728512151749 x[3,1]
   + 0.1651000649222344 x[3,2] + 0.2704434470883789 x[3,3]
   + 0.2052671691083072 x[3,4] - 0.1333728512151749 x[4,1]
   - 0.1651000649222344 x[4,2] - 0.2704434470883789 x[4,3]
   - 0.2052671691083072 x[4,4] >= 0
 findWorstP[3,5]: z + 0.2258164676659046 cashProportion[3]
   - 0.2258164676659046 cashProportion[5] + 0.1333728512151749 x[3,1]
   + 0.1651000649222344 x[3,2] + 0.2704434470883789 x[3,3]
   + 0.2052671691083072 x[3,4] - 0.1333728512151749 x[5,1]
   - 0.1651000649222344 x[5,2] - 0.2704434470883789 x[5,3]
   - 0.2052671691083072 x[5,4] >= 0
 findWorstP[4,1]: z - 0.2826655360045227 cashProportion[1]
   + 0.2826655360045227 cashProportion[4] - 0.2721362447883541 x[1,1]
   - 0.1596706946505547 x[1,2] - 0.1320754716981132 x[1,3]
   - 0.1534520528584552 x[1,4] + 0.2721362447883541 x[4,1]
   + 0.1596706946505547 x[4,2] + 0.1320754716981132 x[4,3]
   + 0.1534520528584552 x[4,4] >= 0
 findWorstP[4,2]: z - 0.2826655360045227 cashProportion[2]
   + 0.2826655360045227 cashProportion[4] - 0.2721362447883541 x[2,1]
   - 0.1596706946505547 x[2,2] - 0.1320754716981132 x[2,3]
   - 0.1534520528584552 x[2,4] + 0.2721362447883541 x[4,1]
   + 0.1596706946505547 x[4,2] + 0.1320754716981132 x[4,3]
   + 0.1534520528584552 x[4,4] >= 0
 findWorstP[4,3]: z - 0.2826655360045227 cashProportion[3]
   + 0.2826655360045227 cashProportion[4] - 0.2721362447883541 x[3,1]
   - 0.1596706946505547 x[3,2] - 0.1320754716981132 x[3,3]
   - 0.1534520528584552 x[3,4] + 0.2721362447883541 x[4,1]
   + 0.1596706946505547 x[4,2] + 0.1320754716981132 x[4,3]
   + 0.1534520528584552 x[4,4] >= 0
 findWorstP[4,5]: z + 0.2826655360045227 cashProportion[4]
   - 0.2826655360045227 cashProportion[5] + 0.2721362447883541 x[4,1]
   + 0.1596706946505547 x[4,2] + 0.1320754716981132 x[4,3]
   + 0.1534520528584552 x[4,4] - 0.2721362447883541 x[5,1]
   - 0.1596706946505547 x[5,2] - 0.1320754716981132 x[5,3]
   - 0.1534520528584552 x[5,4] >= 0
 findWorstP[5,1]: z - 0.2879355024474519 cashProportion[1]
   + 0.2879355024474519 cashProportion[5] - 0.1026849985603225 x[1,1]
   - 0.3363446587964296 x[1,2] - 0.103476821192053 x[1,3]
   - 0.1695580190037432 x[1,4] + 0.1026849985603225 x[5,1]
   + 0.3363446587964296 x[5,2] + 0.103476821192053 x[5,3]
   + 0.1695580190037432 x[5,4] >= 0
 findWorstP[5,2]: z - 0.2879355024474519 cashProportion[2]
   + 0.2879355024474519 cashProportion[5] - 0.1026849985603225 x[2,1]
   - 0.3363446587964296 x[2,2] - 0.103476821192053 x[2,3]
   - 0.1695580190037432 x[2,4] + 0.1026849985603225 x[5,1]
   + 0.3363446587964296 x[5,2] + 0.103476821192053 x[5,3]
   + 0.1695580190037432 x[5,4] >= 0
 findWorstP[5,3]: z - 0.2879355024474519 cashProportion[3]
   + 0.2879355024474519 cashProportion[5] - 0.1026849985603225 x[3,1]
   - 0.3363446587964296 x[3,2] - 0.103476821192053 x[3,3]
   - 0.1695580190037432 x[3,4] + 0.1026849985603225 x[5,1]
   + 0.3363446587964296 x[5,2] + 0.103476821192053 x[5,3]
   + 0.1695580190037432 x[5,4] >= 0
 findWorstP[5,4]: z - 0.2879355024474519 cashProportion[4]
   + 0.2879355024474519 cashProportion[5] - 0.1026849985603225 x[4,1]
   - 0.3363446587964296 x[4,2] - 0.103476821192053 x[4,3]
   - 0.1695580190037432 x[4,4] + 0.1026849985603225 x[5,1]
   + 0.3363446587964296 x[5,2] + 0.103476821192053 x[5,3]
   + 0.1695580190037432 x[5,4] >= 0
Bounds
 z <= 1
 -infinity <= cashProportion[1] <= 1
 -infinity <= cashProportion[2] <= 1
 -infinity <= cashProportion[3] <= 1
 -infinity <= cashProportion[4] <= 1
 -infinity <= cashProportion[5] <= 1
Binaries
 x[1,1] x[1,2] x[1,3] x[1,4] x[2,1] x[2,2] x[2,3] x[2,4] x[3,1] x[3,2]
 x[3,3] x[3,4] x[4,1] x[4,2] x[4,3] x[4,4] x[5,1] x[5,2] x[5,3] x[5,4]
End
