data/mps_files/q3/84_8.mps
NAME foo
ROWS
 N  OBJ
 E  allocateEach[1]
 E  allocateEach[2]
 E  allocateEach[3]
 E  allocateEach[4]
 E  allocateAllCash
 G  findWorstP[1,2]
 G  findWorstP[1,3]
 G  findWorstP[1,4]
 G  findWorstP[1,5]
 G  findWorstP[2,1]
 G  findWorstP[2,3]
 G  findWorstP[2,4]
 G  findWorstP[2,5]
 G  findWorstP[3,1]
 G  findWorstP[3,2]
 G  findWorstP[3,4]
 G  findWorstP[3,5]
 G  findWorstP[4,1]
 G  findWorstP[4,2]
 G  findWorstP[4,3]
 G  findWorstP[4,5]
 G  findWorstP[5,1]
 G  findWorstP[5,2]
 G  findWorstP[5,3]
 G  findWorstP[5,4]
COLUMNS
    z         OBJ       1
    z         findWorstP[1,2]  1
    z         findWorstP[1,3]  1
    z         findWorstP[1,4]  1
    z         findWorstP[1,5]  1
    z         findWorstP[2,1]  1
    z         findWorstP[2,3]  1
    z         findWorstP[2,4]  1
    z         findWorstP[2,5]  1
    z         findWorstP[3,1]  1
    z         findWorstP[3,2]  1
    z         findWorstP[3,4]  1
    z         findWorstP[3,5]  1
    z         findWorstP[4,1]  1
    z         findWorstP[4,2]  1
    z         findWorstP[4,3]  1
    z         findWorstP[4,5]  1
    z         findWorstP[5,1]  1
    z         findWorstP[5,2]  1
    z         findWorstP[5,3]  1
    z         findWorstP[5,4]  1
    cashProportion[1]  allocateAllCash  1
    cashProportion[1]  findWorstP[1,2]  3.2001280051202052e-01
    cashProportion[1]  findWorstP[1,3]  3.2001280051202052e-01
    cashProportion[1]  findWorstP[1,4]  3.2001280051202052e-01
    cashProportion[1]  findWorstP[1,5]  3.2001280051202052e-01
    cashProportion[1]  findWorstP[2,1]  -3.6044154088758740e-01
    cashProportion[1]  findWorstP[3,1]  -2.2581646766590460e-01
    cashProportion[1]  findWorstP[4,1]  -2.8266553600452266e-01
    cashProportion[1]  findWorstP[5,1]  -2.8793550244745186e-01
    cashProportion[2]  allocateAllCash  1
    cashProportion[2]  findWorstP[1,2]  -3.2001280051202052e-01
    cashProportion[2]  findWorstP[2,1]  3.6044154088758740e-01
    cashProportion[2]  findWorstP[2,3]  3.6044154088758740e-01
    cashProportion[2]  findWorstP[2,4]  3.6044154088758740e-01
    cashProportion[2]  findWorstP[2,5]  3.6044154088758740e-01
    cashProportion[2]  findWorstP[3,2]  -2.2581646766590460e-01
    cashProportion[2]  findWorstP[4,2]  -2.8266553600452266e-01
    cashProportion[2]  findWorstP[5,2]  -2.8793550244745186e-01
    cashProportion[3]  allocateAllCash  1
    cashProportion[3]  findWorstP[1,3]  -3.2001280051202052e-01
    cashProportion[3]  findWorstP[2,3]  -3.6044154088758740e-01
    cashProportion[3]  findWorstP[3,1]  2.2581646766590460e-01
    cashProportion[3]  findWorstP[3,2]  2.2581646766590460e-01
    cashProportion[3]  findWorstP[3,4]  2.2581646766590460e-01
    cashProportion[3]  findWorstP[3,5]  2.2581646766590460e-01
    cashProportion[3]  findWorstP[4,3]  -2.8266553600452266e-01
    cashProportion[3]  findWorstP[5,3]  -2.8793550244745186e-01
    cashProportion[4]  allocateAllCash  1
    cashProportion[4]  findWorstP[1,4]  -3.2001280051202052e-01
    cashProportion[4]  findWorstP[2,4]  -3.6044154088758740e-01
    cashProportion[4]  findWorstP[3,4]  -2.2581646766590460e-01
    cashProportion[4]  findWorstP[4,1]  2.8266553600452266e-01
    cashProportion[4]  findWorstP[4,2]  2.8266553600452266e-01
    cashProportion[4]  findWorstP[4,3]  2.8266553600452266e-01
    cashProportion[4]  findWorstP[4,5]  2.8266553600452266e-01
    cashProportion[4]  findWorstP[5,4]  -2.8793550244745186e-01
    cashProportion[5]  allocateAllCash  1
    cashProportion[5]  findWorstP[1,5]  -3.2001280051202052e-01
    cashProportion[5]  findWorstP[2,5]  -3.6044154088758740e-01
    cashProportion[5]  findWorstP[3,5]  -2.2581646766590460e-01
    cashProportion[5]  findWorstP[4,5]  -2.8266553600452266e-01
    cashProportion[5]  findWorstP[5,1]  2.8793550244745186e-01
    cashProportion[5]  findWorstP[5,2]  2.8793550244745186e-01
    cashProportion[5]  findWorstP[5,3]  2.8793550244745186e-01
    cashProportion[5]  findWorstP[5,4]  2.8793550244745186e-01
    MARKER    'MARKER'                 'INTORG'
    x[1,1]    allocateEach[1]  1
    x[1,1]    findWorstP[1,2]  2.5201008040321611e-03
    x[1,1]    findWorstP[1,3]  2.5201008040321611e-03
    x[1,1]    findWorstP[1,4]  2.5201008040321611e-03
    x[1,1]    findWorstP[1,5]  2.5201008040321611e-03
    x[1,1]    findWorstP[2,1]  -3.5755800856048658e-01
    x[1,1]    findWorstP[3,1]  -1.3337285121517486e-01
    x[1,1]    findWorstP[4,1]  -2.7213624478835413e-01
    x[1,1]    findWorstP[5,1]  -1.0268499856032250e-01
    x[1,2]    allocateEach[2]  1
    x[1,2]    findWorstP[1,2]  2.6849073962958520e-01
    x[1,2]    findWorstP[1,3]  2.6849073962958520e-01
    x[1,2]    findWorstP[1,4]  2.6849073962958520e-01
    x[1,2]    findWorstP[1,5]  2.6849073962958520e-01
    x[1,2]    findWorstP[2,1]  -4.3072764136066685e-02
    x[1,2]    findWorstP[3,1]  -1.6510006492223445e-01
    x[1,2]    findWorstP[4,1]  -1.5967069465055472e-01
    x[1,2]    findWorstP[5,1]  -3.3634465879642961e-01
    x[1,3]    allocateEach[3]  1
    x[1,3]    findWorstP[1,2]  2.1320852834113363e-01
    x[1,3]    findWorstP[1,3]  2.1320852834113363e-01
    x[1,3]    findWorstP[1,4]  2.1320852834113363e-01
    x[1,3]    findWorstP[1,5]  2.1320852834113363e-01
    x[1,3]    findWorstP[2,1]  -1.0750168956972292e-01
    x[1,3]    findWorstP[3,1]  -2.7044344708837892e-01
    x[1,3]    findWorstP[4,1]  -1.3207547169811321e-01
    x[1,3]    findWorstP[5,1]  -1.0347682119205298e-01
    x[1,4]    allocateEach[4]  1
    x[1,4]    findWorstP[1,2]  1.9576783071322851e-01
    x[1,4]    findWorstP[1,3]  1.9576783071322851e-01
    x[1,4]    findWorstP[1,4]  1.9576783071322851e-01
    x[1,4]    findWorstP[1,5]  1.9576783071322851e-01
    x[1,4]    findWorstP[2,1]  -1.3142599684613654e-01
    x[1,4]    findWorstP[3,1]  -2.0526716910830722e-01
    x[1,4]    findWorstP[4,1]  -1.5345205285845523e-01
    x[1,4]    findWorstP[5,1]  -1.6955801900374318e-01
    x[2,1]    allocateEach[1]  1
    x[2,1]    findWorstP[1,2]  -2.5201008040321611e-03
    x[2,1]    findWorstP[2,1]  3.5755800856048658e-01
    x[2,1]    findWorstP[2,3]  3.5755800856048658e-01
    x[2,1]    findWorstP[2,4]  3.5755800856048658e-01
    x[2,1]    findWorstP[2,5]  3.5755800856048658e-01
    x[2,1]    findWorstP[3,2]  -1.3337285121517486e-01
    x[2,1]    findWorstP[4,2]  -2.7213624478835413e-01
    x[2,1]    findWorstP[5,2]  -1.0268499856032250e-01
    x[2,2]    allocateEach[2]  1
    x[2,2]    findWorstP[1,2]  -2.6849073962958520e-01
    x[2,2]    findWorstP[2,1]  4.3072764136066685e-02
    x[2,2]    findWorstP[2,3]  4.3072764136066685e-02
    x[2,2]    findWorstP[2,4]  4.3072764136066685e-02
    x[2,2]    findWorstP[2,5]  4.3072764136066685e-02
    x[2,2]    findWorstP[3,2]  -1.6510006492223445e-01
    x[2,2]    findWorstP[4,2]  -1.5967069465055472e-01
    x[2,2]    findWorstP[5,2]  -3.3634465879642961e-01
    x[2,3]    allocateEach[3]  1
    x[2,3]    findWorstP[1,2]  -2.1320852834113363e-01
    x[2,3]    findWorstP[2,1]  1.0750168956972292e-01
    x[2,3]    findWorstP[2,3]  1.0750168956972292e-01
    x[2,3]    findWorstP[2,4]  1.0750168956972292e-01
    x[2,3]    findWorstP[2,5]  1.0750168956972292e-01
    x[2,3]    findWorstP[3,2]  -2.7044344708837892e-01
    x[2,3]    findWorstP[4,2]  -1.3207547169811321e-01
    x[2,3]    findWorstP[5,2]  -1.0347682119205298e-01
    x[2,4]    allocateEach[4]  1
    x[2,4]    findWorstP[1,2]  -1.9576783071322851e-01
    x[2,4]    findWorstP[2,1]  1.3142599684613654e-01
    x[2,4]    findWorstP[2,3]  1.3142599684613654e-01
    x[2,4]    findWorstP[2,4]  1.3142599684613654e-01
    x[2,4]    findWorstP[2,5]  1.3142599684613654e-01
    x[2,4]    findWorstP[3,2]  -2.0526716910830722e-01
    x[2,4]    findWorstP[4,2]  -1.5345205285845523e-01
    x[2,4]    findWorstP[5,2]  -1.6955801900374318e-01
    x[3,1]    allocateEach[1]  1
    x[3,1]    findWorstP[1,3]  -2.5201008040321611e-03
    x[3,1]    findWorstP[2,3]  -3.5755800856048658e-01
    x[3,1]    findWorstP[3,1]  1.3337285121517486e-01
    x[3,1]    findWorstP[3,2]  1.3337285121517486e-01
    x[3,1]    findWorstP[3,4]  1.3337285121517486e-01
    x[3,1]    findWorstP[3,5]  1.3337285121517486e-01
    x[3,1]    findWorstP[4,3]  -2.7213624478835413e-01
    x[3,1]    findWorstP[5,3]  -1.0268499856032250e-01
    x[3,2]    allocateEach[2]  1
    x[3,2]    findWorstP[1,3]  -2.6849073962958520e-01
    x[3,2]    findWorstP[2,3]  -4.3072764136066685e-02
    x[3,2]    findWorstP[3,1]  1.6510006492223445e-01
    x[3,2]    findWorstP[3,2]  1.6510006492223445e-01
    x[3,2]    findWorstP[3,4]  1.6510006492223445e-01
    x[3,2]    findWorstP[3,5]  1.6510006492223445e-01
    x[3,2]    findWorstP[4,3]  -1.5967069465055472e-01
    x[3,2]    findWorstP[5,3]  -3.3634465879642961e-01
    x[3,3]    allocateEach[3]  1
    x[3,3]    findWorstP[1,3]  -2.1320852834113363e-01
    x[3,3]    findWorstP[2,3]  -1.0750168956972292e-01
    x[3,3]    findWorstP[3,1]  2.7044344708837892e-01
    x[3,3]    findWorstP[3,2]  2.7044344708837892e-01
    x[3,3]    findWorstP[3,4]  2.7044344708837892e-01
    x[3,3]    findWorstP[3,5]  2.7044344708837892e-01
    x[3,3]    findWorstP[4,3]  -1.3207547169811321e-01
    x[3,3]    findWorstP[5,3]  -1.0347682119205298e-01
    x[3,4]    allocateEach[4]  1
    x[3,4]    findWorstP[1,3]  -1.9576783071322851e-01
    x[3,4]    findWorstP[2,3]  -1.3142599684613654e-01
    x[3,4]    findWorstP[3,1]  2.0526716910830722e-01
    x[3,4]    findWorstP[3,2]  2.0526716910830722e-01
    x[3,4]    findWorstP[3,4]  2.0526716910830722e-01
    x[3,4]    findWorstP[3,5]  2.0526716910830722e-01
    x[3,4]    findWorstP[4,3]  -1.5345205285845523e-01
    x[3,4]    findWorstP[5,3]  -1.6955801900374318e-01
    x[4,1]    allocateEach[1]  1
    x[4,1]    findWorstP[1,4]  -2.5201008040321611e-03
    x[4,1]    findWorstP[2,4]  -3.5755800856048658e-01
    x[4,1]    findWorstP[3,4]  -1.3337285121517486e-01
    x[4,1]    findWorstP[4,1]  2.7213624478835413e-01
    x[4,1]    findWorstP[4,2]  2.7213624478835413e-01
    x[4,1]    findWorstP[4,3]  2.7213624478835413e-01
    x[4,1]    findWorstP[4,5]  2.7213624478835413e-01
    x[4,1]    findWorstP[5,4]  -1.0268499856032250e-01
    x[4,2]    allocateEach[2]  1
    x[4,2]    findWorstP[1,4]  -2.6849073962958520e-01
    x[4,2]    findWorstP[2,4]  -4.3072764136066685e-02
    x[4,2]    findWorstP[3,4]  -1.6510006492223445e-01
    x[4,2]    findWorstP[4,1]  1.5967069465055472e-01
    x[4,2]    findWorstP[4,2]  1.5967069465055472e-01
    x[4,2]    findWorstP[4,3]  1.5967069465055472e-01
    x[4,2]    findWorstP[4,5]  1.5967069465055472e-01
    x[4,2]    findWorstP[5,4]  -3.3634465879642961e-01
    x[4,3]    allocateEach[3]  1
    x[4,3]    findWorstP[1,4]  -2.1320852834113363e-01
    x[4,3]    findWorstP[2,4]  -1.0750168956972292e-01
    x[4,3]    findWorstP[3,4]  -2.7044344708837892e-01
    x[4,3]    findWorstP[4,1]  1.3207547169811321e-01
    x[4,3]    findWorstP[4,2]  1.3207547169811321e-01
    x[4,3]    findWorstP[4,3]  1.3207547169811321e-01
    x[4,3]    findWorstP[4,5]  1.3207547169811321e-01
    x[4,3]    findWorstP[5,4]  -1.0347682119205298e-01
    x[4,4]    allocateEach[4]  1
    x[4,4]    findWorstP[1,4]  -1.9576783071322851e-01
    x[4,4]    findWorstP[2,4]  -1.3142599684613654e-01
    x[4,4]    findWorstP[3,4]  -2.0526716910830722e-01
    x[4,4]    findWorstP[4,1]  1.5345205285845523e-01
    x[4,4]    findWorstP[4,2]  1.5345205285845523e-01
    x[4,4]    findWorstP[4,3]  1.5345205285845523e-01
    x[4,4]    findWorstP[4,5]  1.5345205285845523e-01
    x[4,4]    findWorstP[5,4]  -1.6955801900374318e-01
    x[5,1]    allocateEach[1]  1
    x[5,1]    findWorstP[1,5]  -2.5201008040321611e-03
    x[5,1]    findWorstP[2,5]  -3.5755800856048658e-01
    x[5,1]    findWorstP[3,5]  -1.3337285121517486e-01
    x[5,1]    findWorstP[4,5]  -2.7213624478835413e-01
    x[5,1]    findWorstP[5,1]  1.0268499856032250e-01
    x[5,1]    findWorstP[5,2]  1.0268499856032250e-01
    x[5,1]    findWorstP[5,3]  1.0268499856032250e-01
    x[5,1]    findWorstP[5,4]  1.0268499856032250e-01
    x[5,2]    allocateEach[2]  1
    x[5,2]    findWorstP[1,5]  -2.6849073962958520e-01
    x[5,2]    findWorstP[2,5]  -4.3072764136066685e-02
    x[5,2]    findWorstP[3,5]  -1.6510006492223445e-01
    x[5,2]    findWorstP[4,5]  -1.5967069465055472e-01
    x[5,2]    findWorstP[5,1]  3.3634465879642961e-01
    x[5,2]    findWorstP[5,2]  3.3634465879642961e-01
    x[5,2]    findWorstP[5,3]  3.3634465879642961e-01
    x[5,2]    findWorstP[5,4]  3.3634465879642961e-01
    x[5,3]    allocateEach[3]  1
    x[5,3]    findWorstP[1,5]  -2.1320852834113363e-01
    x[5,3]    findWorstP[2,5]  -1.0750168956972292e-01
    x[5,3]    findWorstP[3,5]  -2.7044344708837892e-01
    x[5,3]    findWorstP[4,5]  -1.3207547169811321e-01
    x[5,3]    findWorstP[5,1]  1.0347682119205298e-01
    x[5,3]    findWorstP[5,2]  1.0347682119205298e-01
    x[5,3]    findWorstP[5,3]  1.0347682119205298e-01
    x[5,3]    findWorstP[5,4]  1.0347682119205298e-01
    x[5,4]    allocateEach[4]  1
    x[5,4]    findWorstP[1,5]  -1.9576783071322851e-01
    x[5,4]    findWorstP[2,5]  -1.3142599684613654e-01
    x[5,4]    findWorstP[3,5]  -2.0526716910830722e-01
    x[5,4]    findWorstP[4,5]  -1.5345205285845523e-01
    x[5,4]    findWorstP[5,1]  1.6955801900374318e-01
    x[5,4]    findWorstP[5,2]  1.6955801900374318e-01
    x[5,4]    findWorstP[5,3]  1.6955801900374318e-01
    x[5,4]    findWorstP[5,4]  1.6955801900374318e-01
    MARKER    'MARKER'                 'INTEND'
RHS
    RHS1      allocateEach[1]  1
    RHS1      allocateEach[2]  1
    RHS1      allocateEach[3]  1
    RHS1      allocateEach[4]  1
    RHS1      allocateAllCash  1
BOUNDS
 UP BND1      z         1
 MI BND1      cashProportion[1]
 UP BND1      cashProportion[1]  1
 MI BND1      cashProportion[2]
 UP BND1      cashProportion[2]  1
 MI BND1      cashProportion[3]
 UP BND1      cashProportion[3]  1
 MI BND1      cashProportion[4]
 UP BND1      cashProportion[4]  1
 MI BND1      cashProportion[5]
 UP BND1      cashProportion[5]  1
 BV BND1      x[1,1]  
 BV BND1      x[1,2]  
 BV BND1      x[1,3]  
 BV BND1      x[1,4]  
 BV BND1      x[2,1]  
 BV BND1      x[2,2]  
 BV BND1      x[2,3]  
 BV BND1      x[2,4]  
 BV BND1      x[3,1]  
 BV BND1      x[3,2]  
 BV BND1      x[3,3]  
 BV BND1      x[3,4]  
 BV BND1      x[4,1]  
 BV BND1      x[4,2]  
 BV BND1      x[4,3]  
 BV BND1      x[4,4]  
 BV BND1      x[5,1]  
 BV BND1      x[5,2]  
 BV BND1      x[5,3]  
 BV BND1      x[5,4]  
ENDATA
